48337.16,57.19,69.36
45516.98,60.74,73.66
51370.18,53.82,65.26
49666.68,55.66,67.5
45750.51,60.43,73.28
46802.11,59.07,71.63
42127.7,65.62,79.58
45846.01,60.3,73.13
42792.58,64.6,78.35
39710.37,69.62,84.43
48201.63,57.36,69.55
45965.1,60.15,72.94
42707.47,64.73,78.5
46803.15,59.07,71.63
46185.6,59.86,72.59
51280.95,53.91,65.38
41520.08,66.58,80.75
45631.35,60.59,73.47
48170.75,57.39,69.6
46556.46,59.38,72.01
